proyfinal/src/viki/013/experimentInOfficeAgust.take6.output/c14d6ca7-0a4b-42e5-8067-3878ebbce6d7.als.dat
{'cnf.clauses': '118081',
 'cnf.totvars': '69608',
 'conflict literals': '13',
 'conflicts': '10',
 'decisions': '2610',
 'memused.mb': '15.78',
 'outcome': 'UNSAT',
 'propagations': '22017',
 'restarts': '1',
 'solver.msecs': 26,
 'task.msecs': 132}
