proyfinal/src/viki/013/experimentInOfficeAgust.take6.output/c14d6ca7-0a4b-42e5-8067-3878ebbce6d7.als.out
Reading from standard input... Use '--help' for help.
============================[ Problem Statistics ]=============================
|                                                                             |
|  Number of variables:         69608                                         |
|  Number of clauses:          118081                                         |
|  Parse time:                   0.02 s                                       |
|                                                                             |
============================[ Search Statistics ]==============================
| Conflicts |          ORIGINAL         |          LEARNT          | Progress |
|           |    Vars  Clauses Literals |    Limit  Clauses Lit/Cl |          |
===============================================================================
===============================================================================
restarts              : 1
conflicts             : 10             (374 /sec)
decisions             : 2610           (0.00 % random) (97698 /sec)
propagations          : 22017          (824144 /sec)
conflict literals     : 13             (0.00 % deleted)
Memory used           : 15.78 MB
CPU time              : 0.026715 s

UNSATISFIABLE
